0 36
0 166
0 224
0 300
0 337
0 350
0 361
0 367
0 373
0 384
0 391
0 488
0 520
0 535
0 612
0 667
0 670
0 685
0 692
0 712
0 864
0 896
0 997
0 1617
0 1618
0 1619
0 1620
0 1621
0 1622
0 1623
0 1624
0 1625
0 1626
0 1627
0 1628
0 1629
0 1630
0 1631
0 1632
0 1633
0 1634
0 1635
0 1636
0 1637
0 1638
0 1639
0 1640
0 1641
0 1642
0 1643
0 1644
0 1645
0 1646
0 1647
1 37
1 81
1 87
1 131
1 184
1 195
1 233
1 234
1 272
1 309
1 345
1 347
1 348
1 349
1 392
1 393
1 394
1 395
1 397
1 398
1 399
1 422
1 425
1 456
1 457
1 458
1 477
1 480
1 510
1 511
1 540
1 565
1 566
1 606
1 608
1 638
1 904
1 905
1 906
1 1716
1 1717
1 1718
1 1719
1 1720
1 1721
1 1722
1 1723
1 1724
1 1725
2 37
2 100
2 125
2 194
2 214
2 272
2 295
2 362
2 403
2 426
2 427
2 447
2 465
2 472
2 473
2 515
2 519
2 528
2 537
2 562
2 572
2 634
2 708
2 751
2 759
2 760
2 767
2 786
2 787
2 788
2 789
2 955
2 993
2 995
2 1079
2 1080
2 1081
3 7
3 9
3 31
3 41
3 62
3 122
3 138
3 188
3 193
3 205
3 206
3 301
3 327
3 356
3 387
3 413
3 414
3 415
3 416
3 442
3 443
3 444
3 502
3 503
3 551
3 552
3 617
3 618
3 619
3 738
3 739
3 740
3 741
3 742
3 743
3 744
3 745
3 969
3 970
3 971
3 972
3 973
3 1888
4 54
4 158
4 199
4 214
4 222
4 246
4 262
4 285
4 287
4 291
4 305
4 308
4 310
4 318
4 323
4 328
4 330
4 331
4 332
4 344
4 354
4 374
4 400
4 421
4 452
4 467
4 468
4 473
4 482
4 486
4 495
4 534
4 580
4 590
4 595
4 622
4 623
4 691
4 701
4 756
4 833
4 877
4 990
4 1498
4 1499
4 1500
4 1501
4 1502
4 1503
5 299
5 361
5 411
5 818
5 1460
5 1461
6 95
6 294
6 307
6 308
6 350
6 391
6 433
6 472
6 496
6 682
6 778
6 779
6 886
6 1082
6 1083
6 1084
6 1085
6 1086
6 1087
6 1088
6 1089
7 9
7 97
7 122
7 138
7 188
7 193
7 206
7 301
7 325
7 327
7 356
7 361
7 383
7 387
7 413
7 414
7 415
7 416
7 426
7 443
7 444
7 447
7 465
7 477
7 490
7 502
7 503
7 532
7 552
7 617
7 738
7 740
7 1504
7 1505
8 474
8 543
8 729
8 1848
9 31
9 41
9 62
9 92
9 97
9 122
9 138
9 188
9 193
9 205
9 206
9 300
9 301
9 327
9 353
9 356
9 387
9 389
9 413
9 414
9 415
9 416
9 417
9 423
9 442
9 443
9 444
9 465
9 473
9 476
9 502
9 503
9 518
9 526
9 532
9 544
9 551
9 619
9 636
9 654
9 662
9 741
9 744
9 745
9 824
9 897
9 910
9 934
9 935
9 969
9 970
9 973
9 1467
9 1468
9 1469
10 77
10 91
10 127
10 156
10 213
10 246
10 291
10 292
10 300
10 302
10 303
10 306
10 318
10 328
10 329
10 331
10 332
10 374
10 385
10 388
10 419
10 429
10 447
10 448
10 451
10 523
10 530
10 544
10 561
10 888
10 1253
10 1254
10 1255
10 1256
10 1257
10 1258
10 1259
10 1260
10 1261
10 1262
11 37
11 169
11 175
11 195
11 233
11 234
11 276
11 457
11 480
11 511
11 521
11 525
11 734
11 1304
11 1305
11 1306
11 1307
12 37
12 276
12 309
12 508
12 525
12 1348
12 1349
12 1350
13 290
13 592
13 797
13 947
13 1327
14 81
14 183
14 294
14 371
14 373
14 488
14 885
14 1670
14 1671
14 1672
15 63
15 69
15 88
15 146
15 163
15 177
15 200
15 209
15 334
15 335
15 359
15 360
15 384
15 424
15 441
15 460
15 461
15 462
15 513
15 514
15 569
15 611
15 627
15 637
15 705
15 706
15 707
15 733
15 750
15 764
15 925
15 1003
15 1752
15 1753
15 1754
16 108
16 168
16 214
16 224
16 299
16 328
16 418
16 476
16 482
16 700
16 816
16 1234
16 1235
16 1236
16 1237
16 1238
17 266
17 611
17 707
17 849
17 925
17 1308
18 194
18 214
18 273
18 274
18 361
18 362
18 515
18 570
18 1005
18 1978
18 1979
18 1980
18 1981
19 46
19 75
19 81
19 144
19 151
19 294
19 498
19 837
19 966
20 21
20 319
20 328
20 383
20 429
20 459
20 469
20 483
20 484
20 489
20 579
20 642
20 653
20 716
20 794
20 799
20 800
20 814
20 833
20 1310
20 1311
20 1312
20 1313
20 1314
20 1315
20 1316
20 1317
20 1318
21 22
21 149
21 191
21 459
21 483
21 484
21 489
21 531
21 553
21 554
21 579
21 653
21 654
21 669
21 679
21 814
21 815
21 841
22 53
22 149
22 328
22 429
22 459
22 483
22 484
22 489
22 531
22 553
22 554
22 579
22 642
22 669
22 679
22 680
22 701
22 781
22 815
22 1142
23 144
23 150
23 471
23 573
23 652
23 690
23 960
24 55
24 92
24 236
24 274
24 355
24 411
24 439
24 541
24 548
24 575
24 605
24 614
24 644
24 774
24 775
24 776
24 1072
24 1073
24 1074
25 29
25 350
25 420
25 437
25 488
25 535
25 568
25 886
25 887
25 923
25 924
25 1673
25 1674
25 1675
25 1676
26 152
26 1879
26 1880
27 274
27 420
27 440
27 575
27 583
27 613
27 666
27 807
27 818
27 918
27 963
27 1021
27 1022
27 1023
27 1024
28 37
28 153
28 218
28 370
28 536
28 596
28 698
28 907
28 1331
28 1332
28 1333
28 1334
29 65
29 81
29 172
29 264
29 269
29 289
29 293
29 436
29 437
29 498
29 628
29 736
29 773
30 346
30 665
30 862
30 1547
30 1548
30 1549
31 62
31 193
31 248
31 327
31 387
31 416
31 427
31 433
31 442
31 447
31 459
31 551
31 618
31 696
31 744
31 769
31 909
31 910
31 974
31 1734
31 1735
31 1736
31 1737
31 1738
31 1739
31 1740
32 42
32 383
32 434
32 765
32 929
32 1762
33 50
33 81
33 304
33 346
33 384
33 412
33 435
33 541
33 542
33 597
33 600
33 602
33 603
33 719
33 836
33 837
33 938
33 979
33 1509
33 1510
33 1511
33 1512
33 1513
33 1514
33 1515
33 1516
33 1517
34 98
34 157
34 346
34 400
34 446
34 491
34 505
34 528
34 555
34 556
34 593
34 648
34 649
34 664
34 714
34 931
34 932
34 933
34 944
34 1431
34 1432
34 1433
35 192
35 195
35 233
35 234
35 276
35 345
35 392
35 393
35 394
35 395
35 422
35 425
35 456
35 457
35 458
35 510
35 511
35 564
35 608
35 958
35 1841
35 1842
36 79
36 179
36 248
36 362
36 384
36 396
36 409
36 410
36 431
36 438
36 479
36 481
36 526
36 594
36 601
36 603
36 612
36 625
36 670
36 683
36 685
36 686
36 687
36 719
36 843
36 898
36 1335
36 1336
36 1337
36 1338
36 1339
36 1340
37 117
37 118
37 123
37 131
37 169
37 184
37 192
37 195
37 202
37 233
37 234
37 252
37 309
37 345
37 347
37 348
37 349
37 363
37 392
37 393
37 394
37 395
37 397
37 398
37 399
37 422
37 425
37 456
37 457
37 458
37 480
37 510
37 511
37 564
37 565
37 566
38 103
38 263
38 586
39 67
39 114
39 214
39 308
39 320
39 371
39 471
39 478
39 512
39 517
39 539
39 604
39 639
39 912
39 913
39 998
39 999
39 1000
39 1001
39 1742
40 72
40 273
40 350
40 373
40 459
40 460
40 481
40 567
40 568
40 571
40 996
40 997
40 1976
41 62
41 122
41 138
41 193
41 206
41 301
41 325
41 327
41 356
41 387
41 414
41 415
41 416
41 442
41 444
41 490
41 502
41 532
41 551
41 618
41 619
41 741
41 742
41 743
41 897
42 434
42 765
42 929
42 1732
43 189
43 248
43 350
43 1008
43 1982
43 1983
43 1984
43 1985
43 1986
44 429
44 459
44 483
44 531
44 553
44 579
44 654
44 680
44 781
44 883
44 1036
45 92
45 272
45 273
45 274
45 307
45 355
45 411
45 439
45 440
45 463
45 493
45 499
45 540
45 545
45 549
45 576
45 615
45 640
45 641
45 662
45 671
45 725
45 782
45 844
45 871
45 906
45 1143
45 1144
45 1145
45 1146
45 1147
45 1148
45 1149
45 1150
45 1151
45 1152
45 1153
45 1154
45 1155
46 307
46 345
46 346
46 493
46 497
46 640
46 667
46 863
46 1608
46 1609
46 1610
46 1611
46 1612
46 1613
46 1614
46 1615
47 136
47 180
47 246
47 248
47 319
47 336
47 482
47 509
47 550
47 601
47 602
47 603
47 711
47 712
47 713
47 768
47 938
47 939
47 940
47 941
47 942
47 943
47 980
47 1784
47 1785
47 1786
47 1787
47 1788
47 1789
47 1790
47 1791
47 1792
47 1793
47 1794
47 1795
47 1796
47 1797
47 1798
47 1799
47 1800
47 1801
47 1802
47 1803
47 1804
47 1805
48 78
48 87
48 111
48 130
48 197
48 290
48 408
48 412
48 435
48 547
48 591
48 592
48 597
48 676
48 677
48 726
48 977
48 1677
49 79
49 91
49 113
49 128
49 148
49 246
49 285
49 292
49 302
49 303
49 305
49 306
49 318
49 329
49 331
49 332
49 333
49 339
49 343
49 344
49 357
49 358
49 369
49 372
49 379
49 385
49 417
49 445
49 451
49 467
49 475
49 491
49 529
49 533
49 588
49 589
49 590
49 673
49 674
49 675
49 737
49 780
49 880
49 882
49 889
49 1101
49 1102
49 1103
49 1104
49 1105
49 1106
49 1107
49 1108
49 1109
49 1110
49 1111
49 1112
49 1113
49 1114
49 1115
50 132
50 212
50 219
50 246
50 274
50 285
50 300
50 303
50 306
50 319
50 329
50 330
50 344
50 384
50 410
50 423
50 438
50 448
50 455
50 460
50 478
50 505
50 509
50 578
50 581
50 583
50 602
50 622
50 633
50 646
50 648
50 649
50 655
50 684
50 686
50 703
50 758
50 809
50 810
50 824
50 845
50 864
50 879
50 899
50 911
50 914
50 915
50 1406
50 1407
50 1408
50 1409
50 1410
50 1411
50 1412
50 1413
50 1414
50 1415
50 1416
50 1417
50 1418
50 1419
50 1420
50 1421
50 1422
50 1423
50 1424
50 1425
50 1426
51 67
51 137
51 144
51 214
51 308
51 320
51 384
51 400
51 409
51 427
51 438
51 454
51 478
51 519
51 539
51 604
51 629
51 639
51 716
51 717
51 753
51 762
51 1011
51 1807
51 1808
51 1809
51 1810
52 92
52 187
52 272
52 273
52 307
52 373
52 420
52 435
52 600
52 667
52 766
52 1006
52 1007
52 1173
52 1174
52 1175
52 1176
52 1177
53 173
53 294
53 800
53 801
53 1343
54 83
54 85
54 199
54 207
54 222
54 254
54 255
54 262
54 285
54 287
54 291
54 323
54 354
54 367
54 368
54 382
54 405
54 406
54 421
54 468
54 485
54 486
54 487
54 492
54 520
54 534
54 558
54 587
54 590
54 593
54 624
54 747
54 877
54 878
54 1658
55 274
55 542
55 575
55 774
55 775
55 776
55 1071
56 79
56 953
56 1242
56 1243
56 1244
57 273
57 717
57 825
57 1470
57 1471
57 1472
57 1473
57 1474
58 86
58 236
58 256
58 272
58 273
58 274
58 307
58 315
58 355
58 390
58 499
58 540
58 559
58 585
58 613
58 614
58 615
58 668
58 749
58 865
58 978
58 1052
58 1053
58 1054
58 1055
58 1056
58 1057
58 1058
58 1059
58 1060
59 83
59 100
59 207
59 214
59 222
59 246
59 248
59 308
59 362
59 374
59 391
59 421
59 426
59 455
59 519
59 562
59 570
59 631
59 756
59 757
59 758
59 990
59 1963
59 1964
59 1965
59 1966
59 1967
59 1968
59 1969
60 194
60 214
60 390
60 408
60 455
60 494
60 528
60 538
60 570
60 879
60 1661
60 1662
60 1663
60 1664
60 1665
60 1666
60 1667
60 1668
61 63
61 88
61 163
61 200
61 335
61 359
61 360
61 441
61 450
61 461
61 733
61 1004
61 1696
61 1697
61 1698
62 97
62 122
62 193
62 206
62 301
62 327
62 356
62 387
62 414
62 415
62 416
62 442
62 490
62 502
62 619
62 742
62 743
62 745
62 1360
63 69
63 88
63 146
63 163
63 177
63 209
63 334
63 335
63 359
63 360
63 424
63 461
63 462
63 513
63 514
63 569
63 637
63 764
63 1003
63 1004
64 214
64 303
64 341
64 357
64 400
64 410
64 448
64 450
64 561
64 622
64 662
65 793
66 214
66 310
66 354
66 455
66 466
66 479
66 482
66 486
66 526
66 543
66 581
66 594
66 630
66 780
66 792
66 835
66 1040
66 1041
66 1042
66 1043
66 1044
66 1045
67 114
67 196
67 203
67 227
67 231
67 258
67 308
67 320
67 478
67 539
67 570
67 629
67 926
67 927
67 1757
67 1758
68 81
68 137
68 273
68 304
68 460
68 479
68 505
68 506
68 507
68 560
68 627
68 632
68 750
68 751
68 979
68 980
68 981
68 982
68 1903
68 1904
68 1905
68 1906
69 88
69 146
69 163
69 177
69 209
69 334
69 335
69 359
69 360
69 424
69 441
69 461
69 462
69 513
69 514
69 569
69 637
70 144
70 238
70 273
70 336
70 370
70 383
70 402
70 471
70 498
70 682
70 695
70 894
70 895
70 1699
70 1700
70 1701
71 84
71 92
71 115
71 245
71 274
71 304
71 336
71 346
71 386
71 402
71 440
71 499
71 500
71 501
71 506
71 507
71 548
71 549
71 616
71 640
71 967
71 968
71 1881
71 1882
71 1883
71 1884
71 1885
72 165
72 181
72 214
72 272
72 273
72 477
72 479
72 481
72 625
72 626
72 748
72 977
72 1899
72 1900
72 1901
72 1902
73 166
73 221
73 323
73 337
73 703
73 704
73 919
73 920
73 921
74 96
74 248
74 299
74 361
74 370
74 433
74 472
74 650
74 661
74 690
74 728
74 770
74 778
74 779
74 1037
74 1038
74 1039
75 390
75 557
75 1894
75 1895
76 290
77 246
77 285
77 302
77 305
77 329
77 344
77 385
77 419
77 446
77 448
77 449
77 530
77 555
77 724
77 761
77 888
77 1678
77 1679
78 87
78 111
78 130
78 290
78 412
78 547
78 597
78 1755
78 1756
79 91
79 134
79 148
79 156
79 200
79 246
79 266
79 285
79 291
79 292
79 302
79 303
79 305
79 306
79 318
79 329
79 330
79 331
79 332
79 333
79 343
79 344
79 357
79 358
79 369
79 372
79 389
79 402
79 417
79 418
79 419
79 423
79 445
79 446
79 447
79 448
79 449
79 450
79 451
79 475
79 504
79 620
79 636
79 746
79 763
79 974
79 1889
79 1890
79 1891
79 1892
79 1893
80 371
80 712
80 783
80 791
80 1026
80 1027
80 1028
80 1029
80 1030
80 1031
80 1032
80 1033
80 1034
80 1035
81 132
81 274
81 346
81 390
81 542
81 770
81 773
81 942
81 1046
82 324
82 341
82 362
82 465
82 518
82 556
82 572
82 631
82 632
82 646
82 649
82 655
82 678
82 688
82 792
82 795
82 809
82 813
82 881
82 892
82 908
82 936
82 1263
82 1264
82 1265
82 1266
82 1267
82 1268
82 1269
82 1270
82 1271
82 1272
82 1273
82 1274
82 1275
82 1276
82 1277
82 1278
82 1279
82 1280
82 1281
82 1282
82 1283
82 1284
82 1285
82 1286
82 1287
82 1288
82 1289
82 1290
82 1291
82 1292
82 1293
83 85
83 176
83 207
83 222
83 254
83 255
83 262
83 285
83 291
83 368
83 382
83 389
83 406
83 421
83 449
83 492
83 534
83 599
83 992
84 87
84 99
84 115
84 280
84 409
84 447
84 465
84 477
84 699
84 1091
85 176
85 214
85 222
85 246
85 254
85 255
85 262
85 268
85 287
85 308
85 368
85 382
85 391
85 405
85 406
85 421
85 446
85 492
85 534
85 756
85 838
85 866
85 867
85 1429
85 1430
86 92
86 274
86 355
86 386
86 411
86 439
86 440
86 499
86 501
86 613
86 614
86 615
86 963
86 964
86 1863
86 1864
86 1865
86 1866
87 111
87 130
87 197
87 265
87 290
87 304
87 408
87 412
87 591
87 726
87 847
88 163
88 177
88 209
88 300
88 335
88 359
88 360
88 383
88 384
88 424
88 441
88 461
88 462
88 513
88 544
88 569
88 848
88 1554
88 1555
89 273
89 307
89 336
89 373
89 390
89 420
89 488
89 1137
89 1138
90 446
90 456
90 582
90 659
90 1014
90 1015
90 1016
91 99
91 109
91 113
91 127
91 128
91 134
91 148
91 156
91 178
91 191
91 200
91 246
91 285
91 291
91 292
91 302
91 303
91 305
91 306
91 318
91 329
91 330
91 331
91 332
91 333
91 339
91 343
91 344
91 357
91 358
91 369
91 379
91 385
91 389
91 405
91 417
91 418
91 430
91 445
91 449
91 451
91 487
91 491
91 495
91 504
91 529
91 533
91 588
91 589
91 737
91 798
92 95
92 98
92 109
92 117
92 118
92 127
92 129
92 135
92 138
92 141
92 173
92 187
92 197
92 218
92 247
92 274
92 286
92 299
92 304
92 326
92 346
92 355
92 428
92 545
92 575
92 582
92 644
92 657
92 671
92 695
92 793
92 870
92 872
92 873
92 950
92 1061
92 1062
92 1063
92 1064
92 1065
92 1066
92 1067
92 1068
92 1069
92 1070
93 129
93 216
93 371
93 470
93 525
93 610
93 663
93 693
93 711
93 790
93 826
93 827
93 830
93 853
93 855
93 856
93 861
93 902
93 939
93 985
93 1179
93 1180
93 1181
93 1182
93 1183
93 1184
93 1185
93 1186
93 1187
93 1188
93 1189
93 1190
93 1191
93 1192
93 1193
93 1194
93 1195
93 1196
93 1197
93 1198
93 1199
93 1200
93 1201
93 1202
93 1203
93 1204
93 1205
93 1206
93 1207
93 1208
93 1209
93 1210
93 1211
93 1212
93 1213
93 1214
93 1215
93 1216
93 1217
93 1218
93 1219
93 1220
93 1221
93 1222
93 1223
93 1224
93 1225
94 937
94 1774
94 1775
94 1776
94 1777
94 1778
94 1779
94 1780
94 1781
94 1782
94 1783
95 193
95 540
95 671
95 721
95 870
95 871
95 872
95 873
95 1657
96 143
96 301
96 432
96 689
96 690
96 901
96 1705
96 1706
96 1707
96 1708
97 122
97 138
97 188
97 193
97 205
97 206
97 301
97 356
97 387
97 413
97 414
97 442
97 443
97 444
97 502
97 551
97 972
97 1245
98 214
98 272
98 400
98 423
98 440
98 446
98 493
98 515
98 537
98 538
98 555
98 599
98 600
98 708
98 709
98 710
98 930
98 931
98 932
98 933
98 1005
98 1763
98 1764
98 1765
98 1766
98 1767
98 1768
99 109
99 115
99 127
99 134
99 156
99 178
99 200
99 246
99 280
99 285
99 292
99 303
99 305
99 306
99 329
99 330
99 331
99 332
99 333
99 343
99 344
99 358
99 369
99 385
99 405
99 417
99 418
99 448
99 449
99 464
99 487
99 504
99 518
99 524
99 529
99 561
99 589
99 674
99 710
100 105
100 137
100 167
100 170
100 224
100 246
100 259
100 267
100 280
100 291
100 305
100 306
100 318
100 330
100 331
100 332
100 366
100 385
100 389
100 407
100 476
100 495
100 607
100 722
100 953
100 954
100 955
100 1835
100 1836
100 1837
100 1838
100 1839
101 652
101 656
101 842
101 1361
101 1362
101 1363
101 1364
101 1365
101 1366
101 1367
101 1368
101 1369
101 1370
101 1371
101 1372
101 1373
101 1374
101 1375
101 1376
101 1377
101 1378
101 1379
102 144
102 336
102 660
103 263
103 434
104 536
104 863
104 1047
104 1048
104 1049
104 1050
105 363
105 409
105 427
105 433
105 519
105 526
105 543
105 594
105 601
105 631
105 1099
105 1100
106 174
106 260
106 266
106 396
106 423
106 426
106 427
106 519
106 563
106 583
106 626
106 630
106 631
106 632
106 666
106 705
106 706
106 755
106 843
106 844
106 845
106 846
106 1010
106 1523
106 1524
106 1525
106 1526
106 1527
106 1528
106 1529
106 1530
106 1531
106 1532
106 1533
106 1534
106 1535
106 1536
106 1537
106 1538
106 1539
106 1540
106 1541
106 1542
106 1543
106 1544
107 144
107 361
107 370
107 621
108 836
108 1299
108 1300
108 1301
108 1302
108 1303
109 245
109 246
109 272
109 274
109 305
109 307
109 343
109 351
109 357
109 369
109 379
109 386
109 405
109 408
109 419
109 420
109 435
109 464
109 493
109 496
109 499
109 523
109 605
109 644
109 657
109 806
109 848
109 885
109 956
109 1385
109 1386
109 1387
109 1388
110 150
110 299
110 610
110 822
110 823
110 1463
110 1464
110 1465
110 1466
111 265
111 290
111 412
111 597
111 676
111 677
111 736
111 797
112 150
112 214
112 300
112 319
112 362
112 426
112 427
112 455
112 470
112 525
112 573
112 576
112 610
112 621
112 696
112 720
112 724
112 732
112 734
112 1162
112 1163
112 1164
112 1165
112 1166
112 1167
112 1168
112 1169
112 1170
112 1171
112 1172
113 285
113 302
113 303
113 305
113 306
113 329
113 343
113 358
113 445
113 449
113 491
113 722
113 889
113 890
113 1680
113 1681
113 1682
113 1683
113 1684
114 258
114 308
114 320
114 400
114 512
114 571
114 762
114 998
114 999
114 1000
114 1001
114 1002
114 1977
115 280
115 470
115 560
115 650
115 751
115 817
115 1329
115 1330
116 754
116 755
116 985
116 1907
116 1908
116 1909
116 1910
116 1911
116 1912
116 1913
116 1914
116 1915
116 1916
116 1917
116 1918
116 1919
116 1920
116 1921
116 1922
116 1923
116 1924
116 1925
116 1926
116 1927
116 1928
116 1929
116 1930
116 1931
116 1932
116 1933
116 1934
116 1935
116 1936
116 1937
116 1938
116 1939
116 1940
116 1941
116 1942
116 1943
116 1944
116 1945
116 1946
116 1947
116 1948
116 1949
116 1950
116 1951
116 1952
116 1953
116 1954
116 1955
116 1956
116 1957
117 118
117 131
117 175
117 184
117 272
117 304
117 309
117 347
117 348
117 390
117 393
117 394
117 397
117 398
117 399
117 457
117 480
117 507
117 508
117 521
117 548
117 715
117 771
117 772
118 131
118 175
118 184
118 272
118 304
118 309
118 347
118 348
118 390
118 393
118 394
118 397
118 398
118 399
118 457
118 480
118 507
118 508
118 521
118 548
118 715
118 771
118 772
119 204
119 239
119 274
119 355
119 386
119 402
119 411
119 439
119 440
119 500
119 501
119 545
119 546
119 549
119 616
119 735
119 782
119 1136
120 189
120 310
120 322
120 466
120 1381
120 1382
121 183
121 651
122 138
122 188
122 205
122 206
122 301
122 325
122 327
122 356
122 413
122 442
122 443
122 444
122 503
122 552
122 617
123 273
123 304
123 307
123 371
123 373
123 390
123 408
123 435
123 507
123 548
123 638
124 238
124 272
124 450
124 725
124 1693
124 1694
124 1695
125 136
125 157
125 214
125 240
125 249
125 308
125 401
125 479
125 515
125 563
125 572
125 574
125 632
125 633
125 634
125 759
125 760
125 761
125 767
125 768
125 991
125 992
125 993
125 994
125 995
125 1009
125 1970
125 1971
125 1972
125 1973
125 1974
125 1975
126 274
126 355
126 402
126 411
126 439
126 440
126 501
126 545
126 546
126 582
126 596
126 823
127 134
127 156
127 178
127 246
127 291
127 292
127 302
127 303
127 305
127 318
127 329
127 330
127 331
127 332
127 333
127 343
127 344
127 357
127 358
127 369
127 372
127 379
127 385
127 389
127 405
127 418
127 430
127 445
127 451
127 464
127 467
127 476
127 487
127 495
127 523
127 524
127 561
128 148
128 246
128 285
128 291
128 292
128 302
128 303
128 305
128 306
128 318
128 329
128 330
128 331
128 332
128 333
128 339
128 343
128 344
128 357
128 358
128 369
128 372
128 379
128 389
128 405
128 417
128 418
128 430
128 445
128 448
128 451
128 467
128 482
128 533
128 588
128 673
128 798
129 216
129 248
129 272
129 307
129 308
129 319
129 340
129 384
129 475
129 493
129 655
129 656
129 754
129 826
129 827
129 828
129 829
129 830
129 831
129 832
129 852
129 854
129 857
129 858
129 859
129 860
129 904
129 917
129 949
129 1476
129 1477
129 1478
129 1479
129 1480
129 1481
129 1482
129 1483
129 1484
129 1485
129 1486
129 1487
129 1488
129 1489
129 1490
129 1491
129 1492
129 1493
129 1494
129 1495
129 1496
129 1497
130 290
130 412
130 591
130 665
130 676
130 862
130 1602
130 1603
130 1604
130 1605
130 1606
131 169
131 184
131 192
131 309
131 347
131 348
131 349
131 394
131 397
131 398
131 399
131 480
131 905
131 1616
132 273
132 294
132 300
132 396
132 408
132 460
132 498
132 731
132 846
132 1462
133 361
133 1518
134 156
134 178
134 200
134 215
134 246
134 285
134 291
134 292
134 302
134 303
134 305
134 306
134 318
134 329
134 330
134 331
134 332
134 333
134 343
134 344
134 358
134 369
134 372
134 379
134 389
134 405
134 417
134 418
134 430
134 449
134 464
134 467
134 476
134 495
134 504
134 523
134 524
134 529
134 675
135 304
135 417
135 482
135 838
135 839
135 840
135 1008
135 1519
135 1520
135 1521
135 1522
136 539
136 633
136 718
136 760
136 874
136 875
136 981
137 607
137 722
137 876
137 954
137 982
137 1390
137 1391
137 1392
138 188
138 205
138 206
138 301
138 327
138 350
138 356
138 386
138 390
138 413
138 415
138 416
138 490
138 532
138 738
138 740
138 971
138 1653
138 1654
138 1655
138 1656
139 199
139 243
139 323
139 337
139 354
139 402
139 452
139 468
139 486
139 558
139 624
139 747
140 189
140 225
140 367
140 374
141 272
141 373
141 499
141 541
141 544
141 605
141 721
141 948
141 949
141 950
141 951
141 952
141 1816
141 1817
141 1818
141 1819
141 1820
141 1821
141 1822
141 1823
141 1824
141 1825
141 1826
141 1827
141 1828
141 1829
141 1830
141 1831
141 1832
141 1833
141 1834
142 159
142 593
142 599
142 807
142 959
142 1403
142 1404
142 1405
143 689
143 841
143 901
144 160
144 224
144 342
144 376
145 410
145 709
145 849
145 850
145 1557
145 1558
146 209
146 335
146 359
146 360
146 424
146 441
146 461
146 514
146 733
146 764
146 1858
146 1859
146 1860
147 155
147 182
147 243
147 367
147 485
147 558
147 623
147 819
147 820
148 246
148 285
148 292
148 302
148 303
148 305
148 306
148 318
148 329
148 331
148 332
148 333
148 343
148 344
148 357
148 358
148 372
148 417
148 491
148 529
148 533
148 588
148 589
148 590
148 673
148 674
148 675
148 880
148 881
148 882
149 459
149 489
149 531
149 679
149 680
149 1691
149 1692
150 224
150 270
150 396
150 573
150 730
150 960
150 1849
150 1850
150 1851
150 1852
150 1853
150 1854
151 273
151 307
151 567
151 638
151 966
151 1877
151 1878
152 361
152 689
152 702
152 728
152 1239
152 1240
152 1241
153 218
153 697
153 965
153 1389
154 266
154 884
154 890
154 937
154 1607
155 243
155 323
155 367
155 404
155 485
155 587
155 624
155 691
156 178
156 200
156 292
156 302
156 303
156 306
156 333
156 343
156 357
156 358
156 369
156 372
156 379
156 385
156 389
156 405
156 418
156 430
156 445
156 448
156 451
156 464
156 487
156 504
156 524
156 643
157 214
157 560
157 572
157 634
157 718
157 719
157 720
157 759
157 994
157 1814
158 285
158 310
158 429
158 486
158 587
158 835
159 208
159 237
159 253
159 505
159 593
159 636
159 678
159 714
159 763
159 892
159 893
159 1685
159 1686
159 1687
159 1688
159 1689
159 1690
160 273
160 294
160 370
160 420
160 567
160 975
161 273
161 307
161 321
161 957
161 1769
161 1770
161 1771
161 1772
161 1773
162 300
162 370
162 409
162 410
162 438
162 473
162 517
162 556
162 731
162 732
162 1855
162 1856
162 1857
163 177
163 335
163 359
163 360
163 424
163 441
163 462
163 513
164 388
164 465
164 584
164 834
164 913
165 181
165 481
165 681
165 1309
166 189
166 221
166 278
166 323
166 337
166 354
166 703
166 920
167 246
167 248
167 300
167 319
167 320
167 328
167 409
167 410
167 454
167 473
167 494
167 517
167 803
167 804
167 805
167 1156
167 1157
167 1158
168 319
168 388
168 494
168 791
168 1246
168 1247
168 1248
168 1249
168 1250
168 1251
168 1252
169 233
169 309
169 345
169 347
169 348
169 392
169 395
169 397
169 398
169 399
169 422
169 425
169 456
169 458
169 510
169 564
169 565
169 608
170 409
170 543
170 601
170 693
170 902
170 903
170 927
170 943
170 951
170 1709
170 1710
170 1711
170 1712
170 1713
170 1714
170 1715
171 214
171 299
171 300
171 362
171 494
171 603
171 714
171 944
171 945
172 264
172 269
172 436
172 437
173 307
173 669
174 426
174 427
174 519
174 769
174 1010
174 1011
174 1012
174 1989
174 1990
174 1991
174 1992
174 1993
174 1994
174 1995
174 1996
174 1997
174 1998
174 1999
175 195
175 393
175 508
175 521
175 1159
175 1160
175 1161
176 199
176 222
176 255
176 268
176 287
176 368
176 374
176 382
176 391
176 396
176 555
176 595
176 694
177 335
177 359
177 360
177 461
177 514
177 569
177 1232
177 1233
178 246
178 292
178 302
178 303
178 305
178 306
178 318
178 329
178 330
178 331
178 332
178 333
178 343
178 344
178 357
178 358
178 369
178 372
178 379
178 389
178 418
178 430
178 464
178 467
178 504
178 524
178 710
179 214
179 384
179 460
179 481
179 509
179 594
179 612
179 625
179 626
179 627
179 683
179 684
179 685
179 686
179 687
179 750
179 898
179 899
179 900
179 986
179 988
179 989
179 1702
179 1703
179 1704
180 477
180 693
180 711
180 713
180 811
180 940
180 941
180 1351
180 1352
180 1353
180 1354
180 1355
180 1356
180 1357
180 1358
180 1359
181 304
181 625
181 681
181 748
182 453
182 802
182 819
182 820
182 983
182 1344
182 1345
182 1346
182 1347
183 227
183 651
184 195
184 234
184 309
184 480
184 508
184 566
185 248
185 319
185 362
185 396
185 470
185 481
185 661
185 757
185 868
185 1550
185 1551
185 1552
185 1553
186 189
186 310
186 429
186 466
186 485
186 1556
187 272
187 275
187 283
187 307
187 316
187 317
187 336
187 346
187 373
187 408
187 435
187 507
187 609
187 725
187 726
187 727
187 766
187 956
187 957
187 1840
188 206
188 301
188 327
188 356
188 387
188 414
188 415
188 443
188 490
188 552
188 617
188 618
189 310
189 323
189 337
189 354
189 522
189 919
190 812
190 1294
190 1295
190 1296
190 1297
190 1298
191 248
191 274
191 318
191 330
191 423
191 459
191 483
191 484
191 489
191 495
191 517
191 666
191 700
191 746
192 234
192 309
192 347
192 348
192 393
192 394
192 395
192 457
192 606
193 300
193 301
193 325
193 327
193 356
193 383
193 438
193 498
193 505
193 829
193 909
193 1383
193 1384
194 214
194 446
194 528
194 537
194 570
194 664
194 708
194 709
194 930
194 1380
195 234
195 276
195 393
195 394
195 566
195 606
196 279
196 320
196 400
196 454
196 512
196 762
197 214
197 248
197 301
197 339
197 386
197 390
197 408
197 435
197 446
197 834
197 1455
198 371
198 660
198 967
198 1475
199 211
199 254
199 255
199 262
199 268
199 285
199 287
199 291
199 368
199 382
199 391
199 406
199 534
199 537
199 691
199 692
200 291
200 292
200 302
200 303
200 306
200 330
200 331
200 332
200 333
200 343
200 357
200 358
200 369
200 372
200 379
200 430
200 445
200 451
201 426
201 696
201 769
202 345
202 392
202 422
202 425
202 456
202 458
202 608
203 320
203 539
203 602
203 604
203 634
203 875
203 946
204 550
204 1886
204 1887
205 301
205 327
205 413
205 414
205 415
205 416
205 443
205 444
205 503
205 552
206 387
206 413
206 442
206 443
206 444
206 503
207 254
207 255
207 287
207 357
207 368
207 382
207 391
207 406
207 421
207 492
207 505
207 537
207 571
207 694
207 866
207 867
207 916
208 253
208 509
208 583
208 626
208 646
208 663
208 678
208 684
208 723
208 893
208 1117
208 1118
208 1119
208 1120
208 1121
208 1122
208 1123
208 1124
208 1125
208 1126
208 1127
208 1128
208 1129
208 1130
208 1131
208 1132
208 1133
208 1134
208 1135
209 214
209 335
209 359
209 441
209 460
209 462
209 514
209 627
209 723
210 300
210 384
210 438
210 688
210 732
210 795
210 796
210 850
210 1319
210 1320
210 1321
210 1322
210 1323
210 1324
210 1325
210 1326
211 323
211 337
211 354
211 520
211 704
212 947
213 292
213 302
213 318
213 385
213 419
213 449
213 468
213 487
213 530
213 647
213 1427
214 235
214 259
214 277
214 298
214 321
214 341
214 407
215 318
215 530
215 643
215 647
216 475
216 663
216 754
216 755
216 853
216 854
216 855
216 856
216 857
216 858
216 859
216 860
216 1573
216 1574
216 1575
216 1576
216 1577
216 1578
216 1579
216 1580
216 1581
216 1582
216 1583
216 1584
216 1585
216 1586
216 1587
217 479
217 526
217 861
217 874
217 900
217 962
217 1590
217 1591
217 1592
217 1593
217 1594
217 1595
217 1596
217 1597
217 1598
217 1599
217 1600
217 1601
218 272
218 496
218 596
218 697
218 698
219 914
219 915
219 1743
219 1744
219 1745
220 388
220 396
220 470
220 700
220 701
220 916
220 1746
221 323
221 337
221 354
221 921
222 254
222 255
222 268
222 287
222 291
222 368
222 382
222 391
222 406
222 421
222 563
222 630
222 694
223 661
223 1178
224 248
224 299
224 319
224 361
224 374
224 455
224 494
224 538
225 1428
226 336
226 883
226 1669
227 319
227 320
227 328
227 336
227 370
227 371
227 438
227 454
227 470
227 489
227 538
227 557
227 629
227 658
227 753
227 1507
227 1508
228 317
228 498
228 1867
228 1868
228 1869
228 1870
228 1871
228 1872
229 285
229 305
229 306
229 329
229 330
229 331
229 332
229 333
229 344
229 372
229 561
229 630
229 761
229 1958
230 802
230 825
230 1341
230 1342
231 308
231 312
231 320
231 400
231 454
231 478
231 512
231 639
232 306
232 423
232 544
232 611
233 345
233 511
233 565
233 958
234 345
234 392
234 395
234 422
234 456
234 458
235 319
235 388
235 473
235 528
235 664
235 1588
235 1589
236 274
236 315
236 355
236 585
236 615
236 668
236 865
236 948
236 1648
237 912
237 1459
238 402
238 894
238 895
238 1141
239 274
239 355
239 386
239 402
239 411
239 439
239 440
239 500
239 501
239 545
239 546
239 549
239 616
239 735
240 249
240 401
240 563
240 574
240 852
240 1561
240 1562
240 1563
240 1564
240 1565
240 1566
240 1567
240 1568
240 1569
240 1570
240 1571
240 1572
241 323
241 367
241 452
241 520
241 692
241 984
242 294
242 383
242 471
242 672
242 1659
242 1660
243 337
243 367
243 368
243 452
243 555
243 556
243 563
244 272
244 540
244 560
244 574
244 633
244 946
244 1811
244 1812
244 1813
245 265
245 386
245 600
245 891
245 1025
246 277
246 366
246 635
247 272
247 423
247 636
247 763
248 277
248 321
248 338
248 351
248 401
248 478
248 509
248 986
248 987
248 988
248 989
249 374
249 401
249 574
249 768
249 1009
249 1987
249 1988
250 261
250 477
250 784
250 785
251 328
251 531
251 642
252 598
252 752
252 808
253 713
253 811
253 903
253 1437
253 1438
253 1439
253 1440
253 1441
254 255
254 262
254 287
254 291
254 368
254 382
254 391
254 406
254 421
254 492
255 262
255 287
255 368
255 382
255 406
255 421
255 492
256 355
256 411
256 439
256 501
256 546
256 549
256 616
256 961
257 323
257 452
257 558
257 623
257 624
257 747
257 1898
258 308
258 320
258 400
258 478
258 512
258 581
258 604
258 789
258 1002
259 362
259 374
259 410
259 576
259 803
259 804
259 805
260 705
260 706
260 812
260 828
260 987
260 1442
260 1443
260 1444
260 1445
260 1446
260 1447
260 1448
260 1449
260 1450
260 1451
260 1452
260 1453
260 1454
261 299
261 784
261 785
262 287
262 291
262 368
262 485
263 586
264 269
264 436
264 437
265 304
265 500
265 1873
265 1874
265 1875
265 1876
266 333
266 409
266 410
266 620
266 746
266 934
266 935
266 936
267 308
267 312
267 319
267 388
267 454
267 455
267 494
267 538
268 287
268 558
268 878
268 1017
268 1018
268 1019
269 436
269 437
270 730
270 777
270 822
270 1013
271 370
271 621
271 975
271 976
271 1896
271 1897
272 286
272 293
274 315
275 766
275 1006
275 1007
277 300
277 362
277 388
277 447
277 473
277 643
277 647
277 658
277 731
277 758
277 796
277 1090
278 308
278 337
278 354
278 367
278 587
278 623
278 1116
279 362
279 374
280 463
280 699
280 817
281 337
281 367
281 404
281 821
282 299
282 472
282 496
282 907
282 1726
283 316
283 317
283 609
283 727
284 361
284 610
284 728
284 959
284 1843
284 1844
284 1845
284 1846
284 1847
286 336
286 388
286 576
286 801
286 1020
287 433
287 1139
287 1140
288 294
288 307
288 535
288 695
288 1733
289 952
289 1806
290 591
290 592
291 381
293 307
293 350
293 420
293 1959
293 1960
293 1961
293 1962
294 311
295 328
295 515
295 562
295 786
296 376
297 469
297 493
297 605
297 665
297 721
297 832
297 1393
297 1394
297 1395
297 1396
297 1397
297 1398
297 1399
297 1400
297 1401
297 1402
298 308
299 342
300 351
301 325
305 366
308 321
309 313
309 349
310 322
310 364
310 380
311 371
311 471
311 535
312 512
313 348
313 393
313 525
313 1506
314 928
314 1759
314 1760
314 1761
315 613
316 847
316 1545
316 1546
317 371
317 609
317 727
317 1815
319 338
319 453
319 635
320 321
320 454
320 629
320 753
321 396
321 482
321 517
321 571
322 402
324 341
324 556
324 813
325 327
325 532
325 739
325 1559
325 1560
326 923
326 924
330 381
333 737
334 359
334 424
334 441
334 637
338 396
338 470
338 517
338 658
338 790
338 1227
338 1228
338 1229
338 1230
338 1231
340 648
340 810
340 831
340 928
340 1012
340 1092
340 1093
340 1094
340 1095
340 1096
340 1097
340 1098
341 840
341 1226
342 471
342 621
342 702
342 717
342 917
342 918
342 1747
342 1748
342 1749
342 1750
342 1751
347 349
348 349
349 397
349 398
349 399
349 425
351 388
351 614
351 723
351 1075
352 496
352 1434
352 1435
352 1436
353 490
353 1649
354 364
363 641
364 452
364 466
364 584
365 598
365 1727
365 1728
365 1729
365 1730
365 1731
366 407
366 467
366 607
366 876
367 404
367 522
375 410
375 1076
375 1077
375 1078
376 976
377 469
377 652
377 922
378 672
378 816
378 1456
378 1457
378 1458
380 466
380 584
381 620
383 428
396 453
401 426
401 509
401 945
403 562
403 787
403 788
404 452
404 520
404 704
404 821
407 607
407 911
407 1741
428 471
428 656
428 672
428 729
428 996
428 1328
431 670
431 683
431 687
432 547
432 677
450 577
453 983
453 984
460 851
463 557
474 968
474 1861
474 1862
475 527
475 869
475 1051
479 851
483 645
515 635
516 518
527 869
527 1650
527 1651
527 1652
559 749
559 978
585 668
645 653
